T = 20;
P = 2;
Exec = [
[530,520],
[580,950],
[660,700],
[770,960],
[800,590],
[550,740],
[610,840],
[500,880],
[800,640],
[800,890],
[910,830],
[820,610],
[740,700],
[920,690],
[780,970],
[980,510],
[550,670],
[600,650],
[500,600],
[890,870],
];
E = 42;
Edges = [
<1,2>,
<1,3>,
<1,4>,
<1,5>,
<1,6>,
<2,11>,
<3,11>,
<3,8>,
<3,7>,
<4,8>,
<4,9>,
<4,11>,
<5,8>,
<5,7>,
<5,10>,
<6,9>,
<6,7>,
<7,12>,
<7,13>,
<8,12>,
<8,14>,
<9,12>,
<9,13>,
<9,15>,
<10,15>,
<11,12>,
<11,14>,
<11,13>,
<12,18>,
<12,17>,
<12,19>,
<13,17>,
<14,17>,
<14,16>,
<14,19>,
<15,17>,
<15,18>,
<15,16>,
<16,20>,
<17,20>,
<18,20>,
<19,20>,
];
StartAfter = [
{2,3,4,5,6,7,8,9,10,11,12,13,14,15,16,17,18,19,20,}
{11,12,13,14,16,17,18,19,20,}
{7,8,11,12,13,14,16,17,18,19,20,}
{8,9,11,12,13,14,15,16,17,18,19,20,}
{7,8,10,12,13,14,15,16,17,18,19,20,}
{7,9,12,13,15,16,17,18,19,20,}
{12,13,17,18,19,20,}
{12,14,16,17,18,19,20,}
{12,13,15,16,17,18,19,20,}
{15,16,17,18,20,}
{12,13,14,16,17,18,19,20,}
{17,18,19,20,}
{17,20,}
{16,17,19,20,}
{16,17,18,20,}
{20,}
{20,}
{20,}
{20,}
{}
];
V = 20;
VarS = [22,26,20,25,20,22,24,26,20,21,26,26,23,22,25,21,24,26,21,21];
VarR = {
<9,3,27,1,1>,
<4,3,22,1,1>,
<3,3,28,2,1>,
<9,3,29,1,2>,
<5,3,23,2,2>,
<8,3,27,2,3>,
<15,2,25,1,3>,
<17,3,21,2,4>,
<8,2,23,1,5>,
<4,1,21,1,6>,
<12,3,21,2,7>,
<15,1,27,1,7>,
<11,1,29,1,7>,
<2,1,27,2,8>,
<18,2,25,1,8>,
<7,2,28,2,9>,
<12,1,26,1,9>,
<15,3,29,1,9>,
<17,3,25,1,10>,
<14,2,24,1,10>,
<4,2,26,2,11>,
<17,1,20,2,11>,
<19,1,25,1,11>,
<14,1,27,2,12>,
<6,3,24,2,13>,
<8,3,27,2,13>,
<2,3,23,1,13>,
<11,3,23,2,14>,
<3,2,27,2,14>,
<13,3,22,1,15>,
<6,1,25,2,15>,
<14,2,26,2,16>,
<2,2,22,2,16>,
<15,2,24,1,17>,
<19,3,23,1,17>,
<7,3,22,1,17>,
<8,2,21,2,18>,
<6,2,23,1,19>,
<4,3,21,1,20>,
<13,3,24,1,20>,
<5,3,24,2,20>,
};
SPMS = [200,200,];
LLB = [0,520,520,520,520,520,927,969,927,969,1088,1399,1399,1692,1769,2383,2383,2337,2383,2517];
SLB = [520,960,1042,1088,969,927,1415,1219,1399,1769,1820,1920,1961,2255,2337,2893,2775,2887,2789,3387];
LUB = [3002,2955,2555,2601,2482,2662,2271,2033,2255,2630,2515,1783,1824,1825,1830,1380,1262,1420,1276,870];
SUB = [2482,2515,2033,2033,2033,2255,1783,1783,1783,1830,1783,1262,1262,1262,1262,870,870,870,870,0];
UB = 6745;
